solution status: optimal solution found
objective value:                     216199.577632366
d11(0,0)                                            1 	(obj:0)
d11(1,1)                                            1 	(obj:0)
d11(1,2)                                            1 	(obj:0)
d11(2,3)                                            1 	(obj:0)
d11(2,4)                                            1 	(obj:0)
d11(2,5)                                            1 	(obj:0)
d11(3,7)                                            1 	(obj:0)
d11(3,8)                                            1 	(obj:0)
d11(3,9)                                            1 	(obj:0)
d11(3,11)                                           1 	(obj:0)
d11(3,12)                                           1 	(obj:0)
d11(3,13)                                           1 	(obj:0)
d11(3,14)                                           1 	(obj:0)
d11(4,17)                                           1 	(obj:0)
d11(4,21)                                           1 	(obj:0)
d11(4,25)                                           1 	(obj:0)
d11(5,31)                                           1 	(obj:0)
d11(5,33)                                           1 	(obj:0)
d11(5,35)                                           1 	(obj:0)
d11(5,37)                                           1 	(obj:0)
d11(5,39)                                           1 	(obj:0)
d11(5,41)                                           1 	(obj:0)
d11(5,45)                                           1 	(obj:0)
d11(5,47)                                           1 	(obj:0)
d11(5,49)                                           1 	(obj:0)
d11(5,51)                                           1 	(obj:0)
d11(5,53)                                           1 	(obj:0)
d11(5,55)                                           1 	(obj:0)
d11(5,57)                                           1 	(obj:0)
d11(5,59)                                           1 	(obj:0)
d11(5,61)                                           1 	(obj:0)
d12(4,16)                                           1 	(obj:0)
d12(4,18)                                           1 	(obj:0)
d12(4,20)                                           1 	(obj:0)
d12(4,22)                                           1 	(obj:0)
d12(4,24)                                           1 	(obj:0)
d12(4,26)                                           1 	(obj:0)
d12(4,28)                                           1 	(obj:0)
d12(4,30)                                           1 	(obj:0)
d12(5,32)                                           1 	(obj:0)
d12(5,34)                                           1 	(obj:0)
d12(5,36)                                           1 	(obj:0)
d12(5,38)                                           1 	(obj:0)
d12(5,40)                                           1 	(obj:0)
d12(5,42)                                           1 	(obj:0)
d12(5,44)                                           1 	(obj:0)
d12(5,46)                                           1 	(obj:0)
d12(5,48)                                           1 	(obj:0)
d12(5,50)                                           1 	(obj:0)
d12(5,52)                                           1 	(obj:0)
d12(5,54)                                           1 	(obj:0)
d12(5,56)                                           1 	(obj:0)
d12(5,58)                                           1 	(obj:0)
d12(5,60)                                           1 	(obj:0)
d12(5,62)                                           1 	(obj:0)
d21(3,7)                                            1 	(obj:0)
d21(4,15)                                           1 	(obj:0)
d21(4,16)                                           1 	(obj:0)
d21(4,17)                                           1 	(obj:0)
d21(4,19)                                           1 	(obj:0)
d21(4,23)                                           1 	(obj:0)
d21(5,31)                                           1 	(obj:0)
d21(5,32)                                           1 	(obj:0)
d21(5,33)                                           1 	(obj:0)
d21(5,34)                                           1 	(obj:0)
d21(5,35)                                           1 	(obj:0)
d21(5,36)                                           1 	(obj:0)
d21(5,37)                                           1 	(obj:0)
d21(5,39)                                           1 	(obj:0)
d21(5,40)                                           1 	(obj:0)
d21(5,41)                                           1 	(obj:0)
d21(5,47)                                           1 	(obj:0)
d21(5,48)                                           1 	(obj:0)
d21(5,49)                                           1 	(obj:0)
y2(5,40)                             1385.48851144895 	(obj:0)
y2(5,42)                             1385.48851144895 	(obj:0)
y2(5,44)                             1385.48851144895 	(obj:0)
y2(5,46)                             1385.48851144895 	(obj:0)
y2(5,48)                             1385.48851144895 	(obj:0)
y2(5,50)                             1385.48851144895 	(obj:0)
y2(5,52)                             1385.48851144895 	(obj:0)
y2(5,54)                             1385.48851144895 	(obj:0)
y2(5,56)                             1385.48851144895 	(obj:0)
y2(5,58)                             1385.48851144895 	(obj:0)
y2(5,60)                             1385.48851144895 	(obj:0)
y2(5,62)                             1385.48851144895 	(obj:0)
STE(1,1)                                    7370.9999 	(obj:0)
STE(0,0)                                        14175 	(obj:0)
STE(1,2)                             9029.24979888882 	(obj:0)
STE(2,3)                             4578.75000111115 	(obj:0)
STE(2,4)                             6236.99989999997 	(obj:0)
STE(2,5)                             6236.99989999997 	(obj:0)
STE(2,6)                             7895.24979888882 	(obj:0)
STE(3,7)                             1786.50010222234 	(obj:0)
STE(3,8)                             3444.75000111115 	(obj:0)
STE(3,9)                             3444.75000111115 	(obj:0)
STE(3,10)                            5102.99989999997 	(obj:0)
STE(3,11)                            3444.75000111115 	(obj:0)
STE(3,12)                            5102.99989999997 	(obj:0)
STE(3,13)                                   5102.9999 	(obj:0)
STE(3,14)                            6761.24979888882 	(obj:0)
STE(4,15)                            652.500102222337 	(obj:0)
STE(4,16)                            1968.71418809884 	(obj:0)
STE(4,17)                            2310.75000111115 	(obj:0)
STE(4,18)                            3626.96408698766 	(obj:0)
STE(4,19)                            2310.75000111115 	(obj:0)
STE(4,20)                            3626.96408698766 	(obj:0)
STE(4,21)                            3968.99989999997 	(obj:0)
STE(4,22)                            5285.21398587648 	(obj:0)
STE(4,23)                            2310.75000111115 	(obj:0)
STE(4,24)                            3626.96408698766 	(obj:0)
STE(4,25)                            3968.99989999997 	(obj:0)
STE(4,26)                            5285.21398587648 	(obj:0)
STE(4,27)                                   3968.9999 	(obj:0)
STE(4,28)                             5285.2139858765 	(obj:0)
STE(4,29)                            5627.24979888882 	(obj:0)
STE(4,30)                            6943.46388476532 	(obj:0)
STE(5,31)                           -481.499897777663 	(obj:0)
STE(5,32)                            834.714188098843 	(obj:0)
STE(5,33)                            834.714188098842 	(obj:0)
STE(5,34)                            2150.92827397535 	(obj:0)
STE(5,35)                            1176.75000111115 	(obj:0)
STE(5,36)                            2492.96408698766 	(obj:0)
STE(5,37)                            2492.96408698766 	(obj:0)
STE(5,38)                            3809.17817286417 	(obj:0)
STE(5,39)                            1176.75000111115 	(obj:0)
STE(5,40)                            2492.96408698766 	(obj:0)
STE(5,41)                            2492.96408698766 	(obj:0)
STE(5,42)                            3809.17817286416 	(obj:0)
STE(5,43)                            2834.99989999997 	(obj:0)
STE(5,44)                            4151.21398587648 	(obj:0)
STE(5,45)                            4151.21398587648 	(obj:0)
STE(5,46)                            5467.42807175298 	(obj:0)
STE(5,47)                            1176.75000111115 	(obj:0)
STE(5,48)                            2492.96408698766 	(obj:0)
STE(5,49)                            2492.96408698766 	(obj:0)
STE(5,50)                            3809.17817286416 	(obj:0)
STE(5,51)                            2834.99989999997 	(obj:0)
STE(5,52)                            4151.21398587648 	(obj:0)
STE(5,53)                            4151.21398587648 	(obj:0)
STE(5,54)                            5467.42807175298 	(obj:0)
STE(5,55)                                   2834.9999 	(obj:0)
STE(5,56)                            4151.21398587651 	(obj:0)
STE(5,57)                             4151.2139858765 	(obj:0)
STE(5,58)                            5467.42807175301 	(obj:0)
STE(5,59)                            4493.24979888882 	(obj:0)
STE(5,60)                            5809.46388476532 	(obj:0)
STE(5,61)                            5809.46388476532 	(obj:0)
STE(5,62)                            7125.67797064182 	(obj:0)
AVE(1)                                   3216.9117036 	(obj:0)
AVE(2)                                   3366.1541945 	(obj:0)
AVE(3)                                   3515.3966854 	(obj:0)
WB(4)                                3515.39406545826 	(obj:0)
AVE(4)                               3515.39406545826 	(obj:0)
WB(5)                                3167.15385943327 	(obj:0)
AVE(5)                               3167.15385943327 	(obj:0)
WG(1)                                    3216.9117036 	(obj:10)
WG(2)                                3366.15419449995 	(obj:10)
WG(3)                                3515.39668539998 	(obj:10)
BG(1)                                4663.64118415514 	(obj:10)
BG(2)                                830.138304479639 	(obj:10)
BG(3)                                 680.89581357959 	(obj:10)
BG(4)                                2673.40993877527 	(obj:10)
BG(5)                                2673.40993877551 	(obj:10)
y1(1,1)                                    5103.00009 	(obj:0)
y1(1,2)                              3610.57518100007 	(obj:0)
y1(2,3)                              1492.42490899996 	(obj:0)
y1(2,5)                              1492.42490899996 	(obj:0)
y1(3,7)                              1492.42490899994 	(obj:0)
y1(3,9)                              1492.42490899994 	(obj:0)
y1(3,11)                             1492.42490899994 	(obj:0)
y1(3,13)                             1492.42490899994 	(obj:0)
y2(4,16)                             1385.48851144895 	(obj:0)
y2(4,18)                             1385.48851144895 	(obj:0)
y2(4,20)                             1385.48851144895 	(obj:0)
y2(4,22)                             1385.48851144895 	(obj:0)
y2(4,24)                             1385.48851144895 	(obj:0)
y2(4,26)                             1385.48851144895 	(obj:0)
y2(4,28)                             1385.48851144895 	(obj:0)
y2(4,30)                             1385.48851144895 	(obj:0)
y2(5,32)                             1385.48851144895 	(obj:0)
y2(5,34)                             1385.48851144895 	(obj:0)
y2(5,36)                             1385.48851144895 	(obj:0)
y2(5,38)                             1385.48851144895 	(obj:0)
